GLKH-1.1/TMP/mEgtspf.pid16666.atsp
NAME : mEgtspf.pid16666.gtsp
TYPE : ATSP
DIMENSION : 11
EDGE_WEIGHT_TYPE : EXPLICIT
EDGE_WEIGHT_FORMAT : FULL_MATRIX
EDGE_WEIGHT_SECTION
999999 5368709 5368709 5468708 5468708 5468708 5468708 5368714 5368713 5368714 5368715 
5368709 999999 5368709 5468708 5468708 5468708 5468708 5368715 5368714 5368715 5368716 
5368709 5368709 999999 5368715 5368716 5368715 5368714 4368711 4368712 4368713 4368712 
5368709 5368709 5368709 999999 0 10737418 10737418 5368712 5368711 5368712 5368713 
5368709 5368709 5368709 10737418 999999 0 10737418 5368713 5368712 5368713 5368714 
5368709 5368709 5368709 10737418 10737418 999999 0 5368714 5368713 5368714 5368715 
5368709 5368709 5368709 0 10737418 10737418 999999 5368713 5368712 5368713 5368714 
5368709 5368709 5368709 5468708 5468708 5468708 5468708 999999 0 10737418 10737418 
5368709 5368709 5368709 5468708 5468708 5468708 5468708 10737418 999999 0 10737418 
5368709 5368709 5368709 5468708 5468708 5468708 5468708 10737418 10737418 999999 0 
5368709 5368709 5368709 5468708 5468708 5468708 5468708 0 10737418 10737418 999999 
EOF
