RobustCbss/GLKH-1.1/TMP/mEgtspf.pid16666.tour
NAME : mEgtspf.pid16666.gtsp.25943546.tour
COMMENT : Length = 25943546
COMMENT : Found by LKH [Keld Helsgaun] Tue Mar  4 19:26:37 2025
TYPE : TOUR
DIMENSION : 11
TOUR_SECTION
1
2
7
4
5
6
3
8
9
10
11
-1
EOF
